Route #1: 72 113 96 5 6 57
Route #2: 1 119 47 68 83
Route #3: 100 67 42 59 60
Route #4: 36 129 53 49 29
Route #5: 133 107 132 93 130 127 64 75
Route #6: 86 101 128 116 136 138 122
Route #7: 114 137 22 112 25 125 24 85
Route #8: 73 120 78 92 41 80 31 97 13 58 35
Route #9: 81 33 135 14 11 17 37 40 134 102 71
Route #10: 10 74 50 123 27 115 34 131 38 69 94 108 26 9 23 4 62 70
Route #11: 76 111 105 82 106 77 43 46 55 18 21 103 28 63 104 89 91
Route #12: 124 88 109 110 45 20 121 79 54 56 98
Route #13: 16 32 118 95 126 52 87 99 2 117 12 90 66 19 61 48 65 44 15 8 39 51 84 30 7 3
Cost: 16810.86